Solver command line: ['C:\\Users\\Gabriela Escobar\\anaconda3\\envs\\pyomo_env\\Library\\bin\\glpsol.exe', '--write', 'C:\\Users\\GABRIE~1\\AppData\\Local\\Temp\\tmp5bj6d2ab.glpk.raw', '--wglp', 'C:\\Users\\GABRIE~1\\AppData\\Local\\Temp\\tmp8w9dbcyi.glpk.glp', '--cpxlp', 'C:\\Users\\GABRIE~1\\AppData\\Local\\Temp\\tmp6s4nzi5n.pyomo.lp']

GLPSOL--GLPK LP/MIP Solver 5.0
Parameter(s) specified in the command line:
 --write C:\Users\GABRIE~1\AppData\Local\Temp\tmp5bj6d2ab.glpk.raw --wglp
 C:\Users\GABRIE~1\AppData\Local\Temp\tmp8w9dbcyi.glpk.glp --cpxlp C:\Users\GABRIE~1\AppData\Local\Temp\tmp6s4nzi5n.pyomo.lp
Reading problem data from 'C:\Users\GABRIE~1\AppData\Local\Temp\tmp6s4nzi5n.pyomo.lp'...
171 rows, 171 columns, 28901 non-zeros
29762 lines were read
Writing problem data to 'C:\Users\GABRIE~1\AppData\Local\Temp\tmp8w9dbcyi.glpk.glp'...
29587 lines were written
GLPK Simplex Optimizer 5.0
171 rows, 171 columns, 28901 non-zeros
Preprocessing...
170 rows, 170 columns, 28900 non-zeros
Scaling...
 A: min|aij| =  2.889e-05  max|aij| =  5.000e+00  ratio =  1.731e+05
GM: min|aij| =  7.175e-03  max|aij| =  1.394e+02  ratio =  1.942e+04
EQ: min|aij| =  5.148e-05  max|aij| =  1.000e+00  ratio =  1.942e+04
Constructing initial basis...
Size of triangular part is 170
*     0: obj =  -0.000000000e+00 inf =   0.000e+00 (170)
*   111: obj =   7.068990356e+02 inf =   0.000e+00 (0) 1
OPTIMAL LP SOLUTION FOUND
Time used:   0.0 secs
Memory used: 4.8 Mb (5040732 bytes)
Writing basic solution to 'C:\Users\GABRIE~1\AppData\Local\Temp\tmp5bj6d2ab.glpk.raw'...
351 lines were written

